(declare-const __VERIFIER_assert__cond___18 Int)
(declare-const |__VERIFIER_assert__cond___18':151:171:178:185:194| Int)
(declare-const |__VERIFIER_assert__cond___17':150:168:175:182:191| Int)
(declare-const havoc Int)
(declare-const |main__t':147:167:174:181:190| Int)
(declare-const |havoc:9:63:145:187:196| Int)
(declare-const |K:165:166:173:180:189| Int)
(declare-const |__tmp_383_0':146:170:177:184:193| Int)
(declare-const |havoc:3:62:188| Int)
(declare-const |main____CPAchecker_TMP_0':148:169:176:183:192| Int)
(declare-const |main____CPAchecker_TMP_0___0':149:172:179:186:195| Int)
(declare-const main____CPAchecker_TMP_0___0 Int)
(declare-const __VERIFIER_assert__cond___17 Int)
(assert (and (<= (+ (- havoc) 1) 0) (not (= (+ (- havoc) 1) 0))
               (= |havoc:3:62:188| 0)
               (not (= (ite (<= (+ (- havoc) 1) 0) 1 0) 0))
               (or (not (<= (- |K:165:166:173:180:189|) 0))
                     (= (+ |main__t':147:167:174:181:190|
                             (- |K:165:166:173:180:189|)) 0))
               (or (not (and (<= (- |K:165:166:173:180:189|) 0)
                               (<= |K:165:166:173:180:189| 0)))
                     (= (+ (- __VERIFIER_assert__cond___17)
                             |__VERIFIER_assert__cond___17':150:168:175:182:191|) 0))
               (or (not (<= (+ (- |K:165:166:173:180:189|) 1) 0))
                     (= (+ |__VERIFIER_assert__cond___17':150:168:175:182:191|
                             -1) 0))
               (or (not (and (<= (- |K:165:166:173:180:189|) 0)
                               (<= |K:165:166:173:180:189| 0)))
                     (= (+ |main____CPAchecker_TMP_0':148:169:176:183:192|
                             (- |havoc:3:62:188|)) 0))
               (or (not (<= (+ (- |K:165:166:173:180:189|) 1) 0))
                     (= |main____CPAchecker_TMP_0':148:169:176:183:192| 0))
               (or (not (and (<= (- |K:165:166:173:180:189|) 0)
                               (<= |K:165:166:173:180:189| 0)))
                     (= (+ |__tmp_383_0':146:170:177:184:193|
                             (- |havoc:3:62:188|)) 0))
               (or (not (<= (+ (- |K:165:166:173:180:189|) 1) 0))
                     (= |__tmp_383_0':146:170:177:184:193| 0))
               (or (not (and (<= (- |K:165:166:173:180:189|) 0)
                               (<= |K:165:166:173:180:189| 0)))
                     (= (+ (- __VERIFIER_assert__cond___18)
                             |__VERIFIER_assert__cond___18':151:171:178:185:194|) 0))
               (or (not (<= (+ (- |K:165:166:173:180:189|) 1) 0))
                     (= (+ |__VERIFIER_assert__cond___18':151:171:178:185:194|
                             -1) 0))
               (or (not (and (<= (- |K:165:166:173:180:189|) 0)
                               (<= |K:165:166:173:180:189| 0)))
                     (= (+ (- main____CPAchecker_TMP_0___0)
                             |main____CPAchecker_TMP_0___0':149:172:179:186:195|) 0))
               (or (not (<= (+ (- |K:165:166:173:180:189|) 1) 0))
                     (= |main____CPAchecker_TMP_0___0':149:172:179:186:195| 0))
               (or (and (= |K:165:166:173:180:189| 0)
                          (= (+ __VERIFIER_assert__cond___18
                                  (- |__VERIFIER_assert__cond___18':151:171:178:185:194|)) 0)
                          (= (+ __VERIFIER_assert__cond___17
                                  (- |__VERIFIER_assert__cond___17':150:168:175:182:191|)) 0)
                          (= (+ main____CPAchecker_TMP_0___0
                                  (- |main____CPAchecker_TMP_0___0':149:172:179:186:195|)) 0)
                          (= (+ (- |main____CPAchecker_TMP_0':148:169:176:183:192|)
                                  |havoc:3:62:188|) 0)
                          (= (- |main__t':147:167:174:181:190|) 0)
                          (= (+ (- |__tmp_383_0':146:170:177:184:193|)
                                  |havoc:3:62:188|) 0))
                     (and (<= (+ (- |K:165:166:173:180:189|) 1) 0)
                            (= |havoc:3:62:188| 0) (= |havoc:3:62:188| 0)
                            (<= (+ (- havoc) 3) 0)
                            (= (+ |__VERIFIER_assert__cond___18':151:171:178:185:194|
                                    -1) 0)
                            (= (+ |__VERIFIER_assert__cond___17':150:168:175:182:191|
                                    -1) 0)
                            (= |main____CPAchecker_TMP_0':148:169:176:183:192| 0)
                            (= |main____CPAchecker_TMP_0___0':149:172:179:186:195| 0)
                            (= |__tmp_383_0':146:170:177:184:193| 0)
                            (<= (+ |main__t':147:167:174:181:190| (- havoc) 2) 0)
                            (<= (+ (- |main__t':147:167:174:181:190|) 1) 0)))
               (<= (- |K:165:166:173:180:189|) 0)
               (= |__tmp_383_0':146:170:177:184:193| 0)
               (= |main____CPAchecker_TMP_0':148:169:176:183:192| 0)
               (<= (- |main__t':147:167:174:181:190|) 0)
               (< (+ (- havoc) 1) 0) (= |__tmp_383_0':146:170:177:184:193| 0)
               (= |main____CPAchecker_TMP_0':148:169:176:183:192| 0)
               (not (= (+ |main__t':147:167:174:181:190| (- havoc) 2) 0))
               (= |havoc:9:63:145:187:196| 0)
               (not (= (ite (<= (+ (- |main__t':147:167:174:181:190|) -1) 0)
                            1 0) 0))
               (= (ite (<= (+ |main__t':147:167:174:181:190| (- havoc) 2) 0)
                       1 0) 0)))
(check-sat)
